c Reduced graph for queen11_11g generated by Cyril Grelier
p edge 121 1980
e 1 6
e 1 9
e 1 13
e 1 23
e 1 26
e 1 29
e 1 32
e 1 35
e 1 49
e 1 51
e 1 52
e 1 57
e 1 59
e 1 61
e 1 62
e 1 64
e 1 73
e 1 74
e 1 75
e 1 76
e 1 77
e 1 78
e 1 88
e 1 91
e 1 93
e 1 97
e 1 98
e 1 99
e 1 101
e 1 102
e 1 104
e 1 105
e 1 108
e 1 110
e 1 112
e 1 115
e 1 117
e 1 119
e 2 3
e 2 8
e 2 16
e 2 18
e 2 25
e 2 26
e 2 27
e 2 28
e 2 35
e 2 38
e 2 41
e 2 52
e 2 53
e 2 57
e 2 58
e 2 59
e 2 65
e 2 68
e 2 71
e 2 74
e 2 75
e 2 76
e 2 77
e 2 80
e 2 84
e 2 85
e 2 90
e 2 92
e 2 94
e 2 97
e 2 100
e 2 106
e 2 109
e 2 111
e 2 113
e 2 114
e 3 7
e 3 11
e 3 14
e 3 22
e 3 24
e 3 31
e 3 35
e 3 36
e 3 37
e 3 45
e 3 47
e 3 48
e 3 52
e 3 54
e 3 56
e 3 57
e 3 58
e 3 59
e 3 68
e 3 70
e 3 73
e 3 75
e 3 76
e 3 79
e 3 83
e 3 90
e 3 98
e 3 103
e 3 104
e 3 105
e 3 111
e 3 113
e 3 116
e 4 6
e 4 10
e 4 15
e 4 21
e 4 24
e 4 25
e 4 26
e 4 30
e 4 40
e 4 42
e 4 58
e 4 59
e 4 61
e 4 65
e 4 66
e 4 67
e 4 72
e 4 73
e 4 76
e 4 77
e 4 79
e 4 80
e 4 81
e 4 82
e 4 86
e 4 95
e 4 97
e 4 99
e 4 105
e 4 107
e 4 108
e 4 112
e 4 113
e 4 116
e 5 6
e 5 7
e 5 8
e 5 13
e 5 15
e 5 22
e 5 23
e 5 24
e 5 27
e 5 32
e 5 33
e 5 34
e 5 37
e 5 39
e 5 40
e 5 46
e 5 51
e 5 55
e 5 62
e 5 63
e 5 66
e 5 69
e 5 73
e 5 77
e 5 78
e 5 80
e 5 81
e 5 87
e 5 95
e 5 100
e 5 101
e 5 104
e 5 109
e 5 118
e 6 7
e 6 8
e 6 9
e 6 13
e 6 14
e 6 18
e 6 22
e 6 23
e 6 26
e 6 30
e 6 33
e 6 35
e 6 40
e 6 51
e 6 55
e 6 62
e 6 65
e 6 71
e 6 75
e 6 78
e 6 79
e 6 81
e 6 91
e 6 95
e 6 97
e 6 102
e 6 105
e 6 109
e 6 112
e 6 115
e 6 118
e 7 8
e 7 13
e 7 14
e 7 22
e 7 24
e 7 28
e 7 29
e 7 33
e 7 38
e 7 41
e 7 45
e 7 47
e 7 50
e 7 52
e 7 53
e 7 54
e 7 62
e 7 70
e 7 72
e 7 73
e 7 76
e 7 79
e 7 81
e 7 83
e 7 102
e 7 107
e 7 109
e 7 113
e 7 115
e 7 117
e 7 118
e 8 10
e 8 13
e 8 14
e 8 17
e 8 22
e 8 23
e 8 25
e 8 26
e 8 28
e 8 33
e 8 36
e 8 41
e 8 42
e 8 51
e 8 57
e 8 62
e 8 67
e 8 71
e 8 77
e 8 79
e 8 81
e 8 92
e 8 96
e 8 99
e 8 101
e 8 106
e 8 108
e 8 109
e 8 111
e 8 118
e 9 11
e 9 14
e 9 18
e 9 29
e 9 30
e 9 36
e 9 38
e 9 52
e 9 55
e 9 59
e 9 60
e 9 62
e 9 66
e 9 69
e 9 71
e 9 77
e 9 78
e 9 82
e 9 86
e 9 87
e 9 88
e 9 91
e 9 93
e 9 98
e 9 101
e 9 104
e 9 106
e 9 112
e 9 114
e 9 117
e 10 12
e 10 13
e 10 14
e 10 15
e 10 19
e 10 21
e 10 23
e 10 26
e 10 31
e 10 37
e 10 43
e 10 51
e 10 53
e 10 54
e 10 64
e 10 67
e 10 68
e 10 76
e 10 77
e 10 78
e 10 82
e 10 84
e 10 85
e 10 87
e 10 96
e 10 105
e 10 107
e 10 108
e 10 112
e 10 113
e 11 12
e 11 19
e 11 20
e 11 21
e 11 22
e 11 24
e 11 27
e 11 28
e 11 31
e 11 32
e 11 36
e 11 38
e 11 39
e 11 50
e 11 55
e 11 60
e 11 62
e 11 69
e 11 75
e 11 79
e 11 86
e 11 87
e 11 88
e 11 98
e 11 102
e 11 108
e 11 109
e 11 111
e 11 114
e 11 116
e 12 13
e 12 20
e 12 21
e 12 25
e 12 27
e 12 28
e 12 32
e 12 34
e 12 37
e 12 41
e 12 43
e 12 52
e 12 55
e 12 56
e 12 64
e 12 68
e 12 70
e 12 75
e 12 79
e 12 81
e 12 84
e 12 85
e 12 89
e 12 96
e 12 102
e 12 107
e 12 108
e 12 112
e 12 113
e 12 118
e 13 21
e 13 22
e 13 26
e 13 33
e 13 37
e 13 42
e 13 43
e 13 49
e 13 62
e 13 64
e 13 71
e 13 73
e 13 74
e 13 81
e 13 84
e 13 85
e 13 88
e 13 96
e 13 104
e 13 108
e 13 109
e 13 110
e 13 112
e 13 113
e 13 118
e 14 18
e 14 30
e 14 39
e 14 40
e 14 41
e 14 42
e 14 43
e 14 45
e 14 49
e 14 51
e 14 52
e 14 54
e 14 55
e 14 63
e 14 67
e 14 70
e 14 71
e 14 73
e 14 76
e 14 78
e 14 79
e 14 83
e 14 108
e 14 114
e 14 115
e 14 119
e 15 16
e 15 18
e 15 21
e 15 24
e 15 27
e 15 34
e 15 36
e 15 39
e 15 44
e 15 45
e 15 64
e 15 76
e 15 77
e 15 78
e 15 82
e 15 88
e 15 89
e 15 90
e 15 91
e 15 92
e 15 95
e 15 100
e 15 101
e 15 104
e 15 105
e 15 110
e 15 116
e 16 21
e 16 27
e 16 44
e 16 45
e 16 46
e 16 48
e 16 49
e 16 52
e 16 53
e 16 58
e 16 64
e 16 65
e 16 67
e 16 68
e 16 84
e 16 88
e 16 89
e 16 90
e 16 91
e 16 92
e 16 94
e 16 97
e 16 109
e 16 114
e 16 116
e 16 117
e 16 118
e 16 121
e 17 18
e 17 19
e 17 20
e 17 22
e 17 23
e 17 34
e 17 35
e 17 36
e 17 42
e 17 44
e 17 46
e 17 47
e 17 60
e 17 61
e 17 66
e 17 79
e 17 82
e 17 83
e 17 84
e 17 88
e 17 93
e 17 94
e 17 96
e 17 99
e 17 101
e 17 106
e 17 110
e 17 111
e 17 119
e 18 19
e 18 20
e 18 22
e 18 30
e 18 36
e 18 38
e 18 44
e 18 47
e 18 55
e 18 65
e 18 66
e 18 71
e 18 74
e 18 75
e 18 76
e 18 78
e 18 80
e 18 85
e 18 93
e 18 94
e 18 100
e 18 106
e 18 110
e 18 119
e 19 20
e 19 22
e 19 23
e 19 26
e 19 29
e 19 31
e 19 35
e 19 39
e 19 44
e 19 45
e 19 47
e 19 50
e 19 53
e 19 54
e 19 56
e 19 66
e 19 68
e 19 78
e 19 86
e 19 87
e 19 93
e 19 94
e 19 100
e 19 107
e 19 109
e 19 119
e 20 21
e 20 22
e 20 27
e 20 28
e 20 30
e 20 32
e 20 44
e 20 47
e 20 55
e 20 62
e 20 63
e 20 66
e 20 74
e 20 79
e 20 83
e 20 87
e 20 92
e 20 93
e 20 94
e 20 95
e 20 101
e 20 102
e 20 105
e 20 108
e 20 119
e 21 27
e 21 28
e 21 32
e 21 42
e 21 46
e 21 48
e 21 49
e 21 55
e 21 65
e 21 67
e 21 68
e 21 71
e 21 76
e 21 77
e 21 79
e 21 82
e 21 102
e 21 105
e 21 108
e 21 117
e 21 118
e 21 121
e 22 24
e 22 31
e 22 33
e 22 44
e 22 47
e 22 62
e 22 66
e 22 75
e 22 81
e 22 93
e 22 94
e 22 98
e 22 109
e 22 111
e 22 114
e 22 116
e 22 118
e 22 119
e 22 120
e 23 26
e 23 31
e 23 35
e 23 36
e 23 37
e 23 42
e 23 46
e 23 51
e 23 53
e 23 54
e 23 55
e 23 63
e 23 68
e 23 69
e 23 73
e 23 75
e 23 77
e 23 78
e 23 79
e 23 80
e 23 87
e 23 91
e 23 96
e 23 97
e 23 99
e 23 101
e 23 102
e 23 105
e 23 106
e 23 107
e 23 115
e 24 25
e 24 27
e 24 29
e 24 30
e 24 31
e 24 34
e 24 38
e 24 39
e 24 41
e 24 47
e 24 53
e 24 66
e 24 67
e 24 72
e 24 73
e 24 75
e 24 78
e 24 86
e 24 95
e 24 97
e 24 98
e 24 99
e 24 100
e 24 101
e 24 102
e 24 104
e 24 111
e 24 113
e 24 116
e 25 26
e 25 28
e 25 30
e 25 33
e 25 34
e 25 39
e 25 41
e 25 48
e 25 52
e 25 54
e 25 56
e 25 57
e 25 59
e 25 66
e 25 67
e 25 71
e 25 73
e 25 75
e 25 77
e 25 85
e 25 86
e 25 89
e 25 92
e 25 97
e 25 99
e 25 102
e 25 107
e 25 111
e 25 113
e 25 118
e 25 120
e 26 28
e 26 31
e 26 40
e 26 41
e 26 49
e 26 53
e 26 54
e 26 57
e 26 65
e 26 68
e 26 71
e 26 73
e 26 74
e 26 77
e 26 78
e 26 79
e 26 87
e 26 88
e 26 92
e 26 95
e 26 104
e 26 107
e 26 108
e 26 110
e 26 111
e 26 112
e 27 28
e 27 31
e 27 32
e 27 33
e 27 34
e 27 39
e 27 52
e 27 53
e 27 55
e 27 58
e 27 70
e 27 78
e 27 79
e 27 84
e 27 86
e 27 93
e 27 94
e 27 95
e 27 97
e 27 100
e 27 101
e 27 102
e 27 104
e 27 108
e 27 109
e 27 114
e 27 115
e 28 32
e 28 41
e 28 43
e 28 44
e 28 50
e 28 54
e 28 55
e 28 57
e 28 60
e 28 71
e 28 77
e 28 79
e 28 81
e 28 92
e 28 97
e 28 98
e 28 100
e 28 102
e 28 103
e 28 107
e 28 108
e 28 111
e 28 113
e 28 115
e 28 117
e 28 121
e 29 30
e 29 31
e 29 32
e 29 35
e 29 38
e 29 41
e 29 45
e 29 47
e 29 52
e 29 53
e 29 56
e 29 59
e 29 63
e 29 72
e 29 77
e 29 86
e 29 89
e 29 93
e 29 98
e 29 100
e 29 101
e 29 102
e 29 103
e 29 106
e 29 109
e 29 110
e 29 112
e 29 117
e 29 120
e 30 31
e 30 32
e 30 55
e 30 63
e 30 66
e 30 67
e 30 71
e 30 73
e 30 74
e 30 78
e 30 83
e 30 86
e 30 87
e 30 89
e 30 92
e 30 97
e 30 99
e 30 101
e 30 103
e 30 105
e 30 106
e 30 109
e 30 110
e 30 113
e 30 120
e 31 32
e 31 33
e 31 53
e 31 54
e 31 63
e 31 68
e 31 70
e 31 75
e 31 78
e 31 86
e 31 87
e 31 89
e 31 93
e 31 98
e 31 103
e 31 106
e 31 107
e 31 109
e 31 110
e 31 111
e 31 115
e 31 116
e 31 120
e 32 40
e 32 51
e 32 55
e 32 57
e 32 61
e 32 62
e 32 63
e 32 64
e 32 66
e 32 76
e 32 78
e 32 79
e 32 87
e 32 89
e 32 99
e 32 102
e 32 103
e 32 106
e 32 108
e 32 109
e 32 110
e 32 119
e 32 120
e 33 39
e 33 40
e 33 48
e 33 50
e 33 53
e 33 54
e 33 55
e 33 56
e 33 59
e 33 62
e 33 70
e 33 74
e 33 81
e 33 82
e 33 85
e 33 86
e 33 90
e 33 93
e 33 98
e 33 99
e 33 102
e 33 109
e 33 115
e 33 118
e 33 120
e 34 35
e 34 38
e 34 39
e 34 46
e 34 52
e 34 56
e 34 60
e 34 61
e 34 75
e 34 78
e 34 82
e 34 83
e 34 84
e 34 89
e 34 90
e 34 93
e 34 95
e 34 100
e 34 101
e 34 103
e 34 104
e 34 107
e 34 110
e 34 111
e 34 118
e 35 45
e 35 46
e 35 51
e 35 56
e 35 59
e 35 60
e 35 61
e 35 68
e 35 75
e 35 82
e 35 83
e 35 84
e 35 86
e 35 90
e 35 91
e 35 97
e 35 100
e 35 102
e 35 105
e 35 110
e 35 111
e 35 113
e 35 115
e 36 37
e 36 38
e 36 42
e 36 47
e 36 48
e 36 56
e 36 57
e 36 58
e 36 60
e 36 62
e 36 69
e 36 79
e 36 86
e 36 87
e 36 88
e 36 96
e 36 99
e 36 101
e 36 103
e 36 104
e 36 105
e 36 106
e 36 110
e 36 114
e 37 43
e 37 46
e 37 47
e 37 48
e 37 55
e 37 56
e 37 57
e 37 58
e 37 61
e 37 63
e 37 64
e 37 65
e 37 69
e 37 73
e 37 77
e 37 80
e 37 84
e 37 85
e 37 92
e 37 96
e 37 103
e 37 104
e 37 105
e 37 112
e 37 113
e 38 41
e 38 47
e 38 53
e 38 60
e 38 62
e 38 65
e 38 69
e 38 72
e 38 74
e 38 75
e 38 76
e 38 80
e 38 85
e 38 86
e 38 87
e 38 88
e 38 90
e 38 93
e 38 100
e 38 102
e 38 103
e 38 106
e 38 114
e 39 40
e 39 41
e 39 42
e 39 43
e 39 48
e 39 49
e 39 50
e 39 54
e 39 59
e 39 63
e 39 78
e 39 85
e 39 95
e 39 100
e 39 101
e 39 102
e 39 104
e 39 109
e 39 114
e 39 115
e 39 119
e 39 120
e 40 41
e 40 42
e 40 43
e 40 49
e 40 50
e 40 51
e 40 53
e 40 55
e 40 56
e 40 63
e 40 65
e 40 66
e 40 74
e 40 79
e 40 82
e 40 87
e 40 90
e 40 95
e 40 98
e 40 99
e 40 112
e 40 114
e 40 115
e 40 119
e 41 42
e 41 43
e 41 47
e 41 49
e 41 53
e 41 57
e 41 63
e 41 68
e 41 70
e 41 71
e 41 72
e 41 77
e 41 81
e 41 92
e 41 102
e 41 111
e 41 114
e 41 115
e 41 119
e 42 43
e 42 49
e 42 58
e 42 59
e 42 61
e 42 63
e 42 71
e 42 72
e 42 79
e 42 80
e 42 81
e 42 96
e 42 99
e 42 101
e 42 106
e 42 107
e 42 108
e 42 114
e 42 115
e 42 116
e 42 119
e 43 44
e 43 49
e 43 54
e 43 60
e 43 63
e 43 64
e 43 72
e 43 81
e 43 84
e 43 85
e 43 96
e 43 97
e 43 98
e 43 100
e 43 103
e 43 112
e 43 113
e 43 114
e 43 115
e 43 118
e 43 119
e 43 121
e 44 45
e 44 47
e 44 54
e 44 60
e 44 64
e 44 66
e 44 81
e 44 88
e 44 89
e 44 90
e 44 91
e 44 92
e 44 93
e 44 94
e 44 97
e 44 98
e 44 100
e 44 103
e 44 116
e 44 119
e 44 121
e 45 52
e 45 54
e 45 56
e 45 58
e 45 64
e 45 70
e 45 73
e 45 76
e 45 79
e 45 83
e 45 85
e 45 86
e 45 88
e 45 89
e 45 90
e 45 91
e 45 92
e 45 100
e 45 111
e 45 116
e 45 117
e 46 48
e 46 49
e 46 55
e 46 60
e 46 61
e 46 63
e 46 64
e 46 65
e 46 67
e 46 68
e 46 69
e 46 73
e 46 77
e 46 80
e 46 82
e 46 83
e 46 84
e 46 110
e 46 111
e 46 117
e 46 118
e 46 121
e 47 48
e 47 53
e 47 56
e 47 57
e 47 58
e 47 60
e 47 66
e 47 72
e 47 89
e 47 93
e 47 94
e 47 102
e 47 103
e 47 104
e 47 105
e 47 119
e 48 49
e 48 54
e 48 56
e 48 57
e 48 58
e 48 59
e 48 65
e 48 67
e 48 68
e 48 84
e 48 85
e 48 102
e 48 103
e 48 104
e 48 105
e 48 116
e 48 117
e 48 118
e 48 120
e 48 121
e 49 63
e 49 65
e 49 67
e 49 68
e 49 73
e 49 74
e 49 88
e 49 96
e 49 104
e 49 108
e 49 110
e 49 114
e 49 115
e 49 117
e 49 118
e 49 119
e 49 121
e 50 51
e 50 53
e 50 55
e 50 56
e 50 69
e 50 70
e 50 71
e 50 72
e 50 74
e 50 82
e 50 90
e 50 94
e 50 95
e 50 96
e 50 98
e 50 99
e 50 107
e 50 109
e 50 113
e 50 115
e 50 117
e 50 120
e 50 121
e 51 66
e 51 67
e 51 69
e 51 70
e 51 71
e 51 72
e 51 75
e 51 87
e 51 91
e 51 94
e 51 95
e 51 96
e 51 97
e 51 102
e 51 105
e 51 108
e 51 115
e 51 120
e 51 121
e 52 53
e 52 54
e 52 56
e 52 58
e 52 59
e 52 70
e 52 73
e 52 75
e 52 76
e 52 77
e 52 79
e 52 83
e 52 84
e 52 89
e 52 93
e 52 94
e 52 97
e 52 98
e 52 101
e 52 107
e 52 109
e 52 112
e 52 114
e 52 117
e 52 118
e 53 54
e 53 55
e 53 56
e 53 58
e 53 68
e 53 72
e 53 74
e 53 78
e 53 82
e 53 84
e 53 87
e 53 90
e 53 94
e 53 97
e 53 98
e 53 99
e 53 102
e 53 107
e 53 109
e 53 114
e 54 59
e 54 60
e 54 68
e 54 70
e 54 73
e 54 76
e 54 78
e 54 79
e 54 81
e 54 83
e 54 85
e 54 87
e 54 97
e 54 98
e 54 100
e 54 102
e 54 103
e 54 107
e 54 120
e 54 121
e 55 56
e 55 63
e 55 69
e 55 71
e 55 73
e 55 74
e 55 77
e 55 78
e 55 79
e 55 80
e 55 82
e 55 90
e 55 98
e 55 99
e 55 102
e 55 108
e 56 57
e 56 58
e 56 74
e 56 75
e 56 82
e 56 86
e 56 89
e 56 90
e 56 98
e 56 99
e 56 100
e 56 103
e 56 104
e 56 105
e 56 107
e 56 118
e 57 58
e 57 61
e 57 62
e 57 64
e 57 67
e 57 71
e 57 76
e 57 77
e 57 78
e 57 80
e 57 83
e 57 91
e 57 92
e 57 99
e 57 103
e 57 104
e 57 105
e 57 111
e 57 112
e 57 119
e 58 59
e 58 61
e 58 72
e 58 80
e 58 81
e 58 84
e 58 85
e 58 94
e 58 97
e 58 103
e 58 104
e 58 105
e 58 107
e 58 108
e 58 109
e 58 111
e 58 114
e 58 116
e 58 117
e 59 61
e 59 68
e 59 72
e 59 77
e 59 80
e 59 81
e 59 85
e 59 90
e 59 93
e 59 98
e 59 101
e 59 102
e 59 107
e 59 108
e 59 112
e 59 113
e 59 116
e 59 117
e 59 120
e 60 61
e 60 62
e 60 69
e 60 81
e 60 82
e 60 83
e 60 84
e 60 86
e 60 87
e 60 88
e 60 89
e 60 97
e 60 98
e 60 100
e 60 103
e 60 110
e 60 111
e 60 114
e 60 121
e 61 62
e 61 64
e 61 65
e 61 72
e 61 76
e 61 78
e 61 80
e 61 81
e 61 82
e 61 83
e 61 84
e 61 92
e 61 99
e 61 107
e 61 108
e 61 110
e 61 111
e 61 116
e 61 119
e 62 63
e 62 64
e 62 69
e 62 76
e 62 78
e 62 81
e 62 86
e 62 87
e 62 88
e 62 95
e 62 99
e 62 109
e 62 114
e 62 118
e 62 119
e 63 69
e 63 73
e 63 77
e 63 80
e 63 89
e 63 95
e 63 103
e 63 106
e 63 109
e 63 110
e 63 114
e 63 115
e 63 119
e 63 120
e 64 76
e 64 78
e 64 84
e 64 85
e 64 88
e 64 89
e 64 90
e 64 91
e 64 92
e 64 96
e 64 99
e 64 112
e 64 113
e 64 116
e 64 119
e 65 67
e 65 68
e 65 74
e 65 75
e 65 76
e 65 79
e 65 80
e 65 85
e 65 92
e 65 95
e 65 100
e 65 106
e 65 112
e 65 117
e 65 118
e 65 121
e 66 67
e 66 73
e 66 82
e 66 86
e 66 87
e 66 91
e 66 93
e 66 94
e 66 97
e 66 99
e 66 104
e 66 106
e 66 113
e 66 119
e 67 68
e 67 73
e 67 80
e 67 83
e 67 86
e 67 91
e 67 97
e 67 99
e 67 108
e 67 112
e 67 113
e 67 117
e 67 118
e 67 121
e 68 70
e 68 78
e 68 81
e 68 87
e 68 90
e 68 107
e 68 113
e 68 117
e 68 118
e 68 121
e 69 70
e 69 71
e 69 72
e 69 73
e 69 77
e 69 80
e 69 86
e 69 87
e 69 88
e 69 94
e 69 95
e 69 96
e 69 114
e 69 119
e 69 120
e 69 121
e 70 71
e 70 72
e 70 73
e 70 76
e 70 79
e 70 81
e 70 83
e 70 86
e 70 93
e 70 94
e 70 95
e 70 96
e 70 115
e 70 120
e 70 121
e 71 72
e 71 77
e 71 78
e 71 92
e 71 94
e 71 95
e 71 96
e 71 111
e 71 120
e 71 121
e 72 80
e 72 81
e 72 94
e 72 95
e 72 96
e 72 102
e 72 107
e 72 108
e 72 116
e 72 118
e 72 120
e 72 121
e 73 74
e 73 76
e 73 77
e 73 79
e 73 80
e 73 83
e 73 86
e 73 88
e 73 97
e 73 99
e 73 104
e 73 108
e 73 110
e 73 113
e 74 75
e 74 76
e 74 80
e 74 82
e 74 83
e 74 85
e 74 87
e 74 88
e 74 90
e 74 92
e 74 98
e 74 99
e 74 100
e 74 101
e 74 104
e 74 105
e 74 106
e 74 108
e 74 110
e 75 76
e 75 80
e 75 85
e 75 89
e 75 91
e 75 97
e 75 98
e 75 100
e 75 102
e 75 105
e 75 106
e 75 107
e 75 111
e 75 115
e 75 116
e 75 118
e 76 77
e 76 78
e 76 79
e 76 80
e 76 82
e 76 83
e 76 85
e 76 99
e 76 100
e 76 105
e 76 106
e 76 119
e 77 80
e 77 82
e 77 92
e 77 93
e 77 98
e 77 101
e 77 105
e 77 111
e 77 112
e 77 117
e 78 87
e 78 95
e 78 99
e 78 100
e 78 101
e 78 104
e 78 107
e 78 119
e 79 83
e 79 95
e 79 96
e 79 99
e 79 101
e 79 102
e 79 106
e 79 108
e 79 112
e 80 81
e 80 83
e 80 85
e 80 91
e 80 100
e 80 106
e 80 107
e 80 108
e 80 112
e 80 116
e 81 97
e 81 98
e 81 100
e 81 103
e 81 107
e 81 108
e 81 109
e 81 116
e 81 118
e 81 121
e 82 83
e 82 84
e 82 90
e 82 91
e 82 98
e 82 99
e 82 104
e 82 105
e 82 106
e 82 110
e 82 111
e 83 84
e 83 87
e 83 91
e 83 92
e 83 101
e 83 105
e 83 110
e 83 111
e 83 112
e 84 85
e 84 94
e 84 96
e 84 97
e 84 109
e 84 110
e 84 111
e 84 112
e 84 113
e 84 114
e 84 116
e 85 96
e 85 100
e 85 102
e 85 106
e 85 111
e 85 112
e 85 113
e 85 117
e 85 120
e 86 87
e 86 88
e 86 93
e 86 97
e 86 99
e 86 100
e 86 113
e 86 114
e 86 115
e 87 88
e 87 92
e 87 101
e 87 105
e 87 107
e 87 114
e 88 89
e 88 90
e 88 91
e 88 92
e 88 104
e 88 108
e 88 110
e 88 114
e 88 116
e 89 90
e 89 91
e 89 92
e 89 103
e 89 106
e 89 107
e 89 109
e 89 110
e 89 116
e 89 118
e 89 120
e 90 91
e 90 92
e 90 93
e 90 98
e 90 99
e 90 103
e 90 113
e 90 116
e 91 92
e 91 97
e 91 102
e 91 104
e 91 105
e 91 106
e 91 112
e 91 115
e 91 116
e 92 101
e 92 105
e 92 111
e 92 116
e 93 94
e 93 98
e 93 101
e 93 103
e 93 112
e 93 115
e 93 117
e 93 119
e 94 95
e 94 96
e 94 97
e 94 109
e 94 114
e 94 119
e 94 120
e 94 121
e 95 96
e 95 100
e 95 101
e 95 104
e 95 112
e 95 120
e 95 121
e 96 99
e 96 101
e 96 106
e 96 112
e 96 113
e 96 120
e 96 121
e 97 98
e 97 99
e 97 100
e 97 102
e 97 103
e 97 105
e 97 109
e 97 113
e 97 114
e 97 115
e 97 121
e 98 99
e 98 100
e 98 101
e 98 103
e 98 111
e 98 112
e 98 116
e 98 117
e 98 121
e 99 101
e 99 106
e 99 113
e 99 119
e 100 101
e 100 103
e 100 104
e 100 106
e 100 121
e 101 104
e 101 105
e 101 106
e 101 112
e 101 117
e 102 105
e 102 108
e 102 115
e 102 120
e 103 104
e 103 105
e 103 106
e 103 109
e 103 110
e 103 120
e 103 121
e 104 105
e 104 106
e 104 108
e 104 110
e 105 115
e 106 109
e 106 110
e 106 120
e 107 108
e 107 113
e 107 115
e 107 116
e 107 117
e 107 118
e 108 110
e 108 116
e 109 110
e 109 114
e 109 118
e 109 120
e 110 111
e 110 120
e 111 116
e 111 117
e 112 113
e 112 117
e 113 115
e 113 117
e 114 115
e 114 119
e 114 120
e 115 117
e 115 119
e 117 118
e 117 121
e 118 121
e 120 121
